
Gurobi 11.0.1 (win64) logging started Wed Mar 13 20:01:03 2024

Set parameter LogFile to value "C:\Projetos\Job_Rotation_Algorithms\Outputs\GurobiLogs\gurobi_log-output-9_ros-c23-BorbaRittModel-NoExtraConstraint-2.log"
Gurobi Optimizer version 11.0.1 build v11.0.1rc0 (win64 - Windows 10.0 (19045.2))

CPU model: 11th Gen Intel(R) Core(TM) i7-1165G7 @ 2.80GHz, instruction set [SSE2|AVX|AVX2|AVX512]
Thread count: 4 physical cores, 8 logical processors, using up to 1 threads


Gurobi 11.0.1 (win64) logging started Thu Mar 14 07:59:20 2024

Set parameter LogFile to value "C:\Projetos\Job_Rotation_Algorithms\Outputs\GurobiLogs\gurobi_log-output-9_ros-c23-BorbaRittModel-NoExtraConstraint-2.log"
Gurobi Optimizer version 11.0.1 build v11.0.1rc0 (win64 - Windows 10.0 (19045.2))

CPU model: 11th Gen Intel(R) Core(TM) i7-1165G7 @ 2.80GHz, instruction set [SSE2|AVX|AVX2|AVX512]
Thread count: 4 physical cores, 8 logical processors, using up to 1 threads


Gurobi 11.0.1 (win64) logging started Fri Mar 15 00:36:47 2024

Set parameter LogFile to value "C:\Projetos\Job_Rotation_Algorithms\Outputs\GurobiLogs\gurobi_log-output-9_ros-c23-BorbaRittModel-NoExtraConstraint-2.log"
Gurobi Optimizer version 11.0.1 build v11.0.1rc0 (win64 - Windows 10.0 (19045.2))

CPU model: 11th Gen Intel(R) Core(TM) i7-1165G7 @ 2.80GHz, instruction set [SSE2|AVX|AVX2|AVX512]
Thread count: 4 physical cores, 8 logical processors, using up to 1 threads


Gurobi 11.0.1 (win64) logging started Sat Mar 16 12:25:47 2024

Set parameter LogFile to value "C:\Projetos\Job_Rotation_Algorithms\Outputs\GurobiLogs\gurobi_log-output-9_ros-c23-BorbaRittModel-NoExtraConstraint-2.log"
Gurobi Optimizer version 11.0.1 build v11.0.1rc0 (win64 - Windows 10.0 (19045.2))

CPU model: 11th Gen Intel(R) Core(TM) i7-1165G7 @ 2.80GHz, instruction set [SSE2|AVX|AVX2|AVX512]
Thread count: 4 physical cores, 8 logical processors, using up to 1 threads


Gurobi 11.0.1 (win64) logging started Sat Mar 16 22:21:12 2024

Set parameter LogFile to value "C:\Projetos\Job_Rotation_Algorithms\Outputs\GurobiLogs\gurobi_log-output-9_ros-c23-BorbaRittModel-NoExtraConstraint-2.log"
Gurobi Optimizer version 11.0.1 build v11.0.1rc0 (win64 - Windows 10.0 (19045.2))

CPU model: 11th Gen Intel(R) Core(TM) i7-1165G7 @ 2.80GHz, instruction set [SSE2|AVX|AVX2|AVX512]
Thread count: 4 physical cores, 8 logical processors, using up to 1 threads

WLS license 901039 - registered to Bitka Analytics
Optimize a model with 822 rows, 293 columns and 2643 nonzeros
Model fingerprint: 0xac4769ed
Variable types: 2 continuous, 291 integer (291 binary)
Coefficient statistics:
  Matrix range     [1e+00, 1e+01]
  Objective range  [1e+00, 1e+00]
  Bounds range     [1e+00, 5e+01]
  RHS range        [1e+00, 5e+01]
Presolve removed 5 rows and 5 columns
Presolve time: 0.00s
Presolved: 817 rows, 288 columns, 2633 nonzeros
Variable types: 0 continuous, 288 integer (287 binary)

Root relaxation: objective 5.000000e+01, 395 iterations, 0.01 seconds (0.01 work units)

    Nodes    |    Current Node    |     Objective Bounds      |     Work
 Expl Unexpl |  Obj  Depth IntInf | Incumbent    BestBd   Gap | It/Node Time

     0     0   50.00000    0   93          -   50.00000      -     -    0s
     0     0   50.00000    0  105          -   50.00000      -     -    0s
     0     0   50.00000    0   92          -   50.00000      -     -    0s
     0     0   50.00000    0   92          -   50.00000      -     -    0s
     0     0   50.00000    0   91          -   50.00000      -     -    0s
     0     0   50.00000    0   91          -   50.00000      -     -    0s
     0     0   50.00000    0   85          -   50.00000      -     -    0s
     0     0   50.00000    0   67          -   50.00000      -     -    0s
     0     2   50.00000    0   67          -   50.00000      -     -    0s
* 1238   315              28      39.0000000   50.00000  28.2%  20.6    2s
* 1245   295              32      40.0000000   50.00000  25.0%  20.6    2s
H 1345   233                      41.0000000   50.00000  22.0%  20.9    2s
H 1476   195                      42.0000000   50.00000  19.0%  24.8    2s
H 2032   151                      44.0000000   50.00000  13.6%  36.5    3s
  2595   191     cutoff   23        44.00000   50.00000  13.6%  45.9    5s
  3926   209   49.00000   19   88   44.00000   50.00000  13.6%  55.2   10s
  6001   310   50.00000   20   92   44.00000   50.00000  13.6%  60.6   15s
  7809   375   49.61842   24  103   44.00000   50.00000  13.6%  64.6   20s
 10513   158   47.83098   25   80   44.00000   48.00000  9.09%  65.1   25s

Cutting planes:
  Flow cover: 1
  Zero half: 2
  RLT: 7
  BQP: 3

Explored 10987 nodes (727264 simplex iterations) in 25.53 seconds (24.27 work units)
Thread count was 1 (of 8 available processors)

Solution count 5: 44 42 41 ... 39

Optimal solution found (tolerance 1.00e-03)
Best objective 4.400000000000e+01, best bound 4.400000000000e+01, gap 0.0000%
